% File represents an instance of a Composite Structure problem to be solved by a CP framework
% Created on 2025-03-26 10:41:23.735
T = 50;
n = 16;
m = 24;
edges = [(1, 2),
(5, 6),
(9, 10),
(13, 14),
(2, 3),
(6, 7),
(10, 11),
(14, 15),
(3, 4),
(7, 8),
(11, 12),
(16, 15),
(5, 1),
(5, 9),
(9, 13),
(6, 2),
(6, 10),
(10, 14),
(7, 3),
(7, 11),
(11, 15),
(8, 4),
(8, 12),
(16, 12)];
counts = [|14, 4, 14, 14,
|14, 4, 14, 8,
|14, 4, 14, 4,
|12, 2, 12, 4,
|14, 6, 14, 16,
|14, 6, 14, 10,
|14, 4, 14, 6,
|12, 2, 12, 6,
|14, 4, 14, 12,
|14, 4, 14, 6,
|12, 4, 12, 4,
|12, 2, 12, 2,
|12, 4, 12, 10,
|12, 4, 12, 4,
|10, 4, 10, 2,
|12, 4, 12, 2|];
